
Log started (V11.0.0) Fri May 16 18:05:13 2008

Tried aggregator 1 time.
Reduced MIP has 240 rows, 8001 columns, and 16040 nonzeros.
Presolve time =    0.06 sec.
Clique table members: 200.
MIP emphasis: balance optimality and feasibility.
MIP search method: dynamic search.
Parallel mode: none, using 1 thread.
Root relaxation solution time =    0.58 sec.

        Nodes                                         Cuts/
   Node  Left     Objective  IInf  Best Integer     Best Node    ItCnt     Gap

*     0+    0                        22090.0000      500.7502      576   97.73%
*     0+    0                          503.0000      500.7502      576    0.45%
      0     0      501.0000    53      503.0000      Fract: 6      580    0.40%
      0     0      501.0000    54      503.0000     Covers: 1      588    0.40%
      0     0      501.0000    56      503.0000       Cuts: 6      671    0.40%
      0     2      501.0000    56      503.0000      501.0000      671    0.40%
    100    49    infeasible            503.0000      501.0000    20120    0.40%
    200   109      502.0000    70      503.0000      501.0000    36486    0.40%
    300   168      501.0000    45      503.0000      501.0000    40300    0.40%
    400   233      502.0000    73      503.0000      501.0000    60967    0.40%
    500   279    infeasible            503.0000      501.0000    92890    0.40%
    600   239      502.0000    66      503.0000      501.0000   125978    0.40%
    700   224    infeasible            503.0000      501.0000   140192    0.40%
    800   204    infeasible            503.0000      501.0000   170785    0.40%
    900   214      502.0000    52      503.0000      501.0000   193553    0.40%
   1000   267      501.0000    62      503.0000      501.0000   238805    0.40%
Elapsed time =  81.25 sec. (tree size =  1.37 MB, solutions = 2)
   1100   334      502.0000    63      503.0000      501.0000   256548    0.40%
   1200   374      502.0000    51      503.0000      501.0000   313334    0.40%
   1300   388      502.0000    53      503.0000      501.0000   411159    0.40%
   1400   442      502.0000    63      503.0000      501.0000   449482    0.40%
   1500   518      501.0000    62      503.0000      501.0000   461312    0.40%
   1600   513        cutoff            503.0000      501.0000   478774    0.40%
   1700   468      502.0000    56      503.0000      501.0000   483130    0.40%
   1800   499    infeasible            503.0000      501.0000   484304    0.40%
   1900   532      502.0000    64      503.0000      501.0000   488801    0.40%
   2000   542      501.0000    73      503.0000      501.0000   526920    0.40%
Elapsed time = 160.28 sec. (tree size =  2.90 MB, solutions = 2)
   2100   605      502.0000    42      503.0000      501.0000   560750    0.40%
   2200   672      502.0000    42      503.0000      501.0000   580209    0.40%
   2300   744      502.0000    44      503.0000      501.0000   606939    0.40%
   2400   803      502.0000    81      503.0000      501.0000   650586    0.40%
   2500   848      502.0000    77      503.0000      501.0000   672236    0.40%
   2600   918      502.0000    75      503.0000      501.0000   684320    0.40%
   2700   878        cutoff            503.0000      501.0000   709897    0.40%
   2800   778    infeasible            503.0000      502.0000   901653    0.20%
   2900   678    infeasible            503.0000      502.0000  1122338    0.20%
   3000   578    infeasible            503.0000      502.0000  1348823    0.20%
Elapsed time = 352.00 sec. (tree size =  3.22 MB, solutions = 2)
   3100   478    infeasible            503.0000      502.0000  1603293    0.20%
   3200   378    infeasible            503.0000      502.0000  1817372    0.20%
   3300   278    infeasible            503.0000      502.0000  2024265    0.20%
   3400   178    infeasible            503.0000      502.0000  2218419    0.20%
   3500    78    infeasible            503.0000      502.0000  2397543    0.20%

Cover cuts applied:  155
Mixed integer rounding cuts applied:  3
Gomory fractional cuts applied:  4

Solution pool: 2 solutions saved.

MIP - Integer optimal solution:  Objective = 5.0300000000e+002
Solution time =  595.14 sec.  Iterations = 2546333  Nodes = 3579


Incumbent solution
Variable Name           Solution Value
Cmax                        503.000000
X_1_9                         1.000000
X_2_15                        1.000000
X_3_9                         1.000000
X_4_23                        1.000000
X_5_19                        1.000000
X_6_24                        1.000000
X_7_14                        1.000000
X_8_24                        1.000000
X_9_34                        1.000000
X_10_23                       1.000000
X_11_27                       1.000000
X_12_32                       1.000000
X_13_28                       1.000000
X_14_32                       1.000000
X_15_25                       1.000000
X_16_38                       1.000000
X_17_4                        1.000000
X_18_14                       1.000000
X_19_21                       1.000000
X_20_18                       1.000000
X_21_40                       1.000000
X_22_16                       1.000000
X_23_35                       1.000000
X_24_12                       1.000000
X_25_25                       1.000000
X_26_6                        1.000000
X_27_27                       1.000000
X_28_31                       1.000000
X_29_34                       1.000000
X_30_10                       1.000000
X_31_29                       1.000000
X_32_23                       1.000000
X_33_26                       1.000000
X_34_26                       1.000000
X_35_21                       1.000000
X_36_10                       1.000000
X_37_34                       1.000000
X_38_27                       1.000000
X_39_38                       1.000000
X_40_7                        1.000000
X_41_26                       1.000000
X_42_20                       1.000000
X_43_11                       1.000000
X_44_8                        1.000000
X_45_15                       1.000000
X_46_32                       1.000000
X_47_29                       1.000000
X_48_5                        1.000000
X_49_25                       1.000000
X_50_33                       1.000000
X_51_36                       1.000000
X_52_1                        1.000000
X_53_37                       1.000000
X_54_39                       1.000000
X_55_6                        1.000000
X_56_38                       1.000000
X_57_23                       1.000000
X_58_38                       1.000000
X_59_40                       1.000000
X_60_28                       1.000000
X_61_16                       1.000000
X_62_27                       1.000000
X_63_30                       1.000000
X_64_28                       1.000000
X_65_35                       1.000000
X_66_1                        1.000000
X_67_29                       1.000000
X_68_22                       1.000000
X_69_19                       1.000000
X_70_36                       1.000000
X_71_5                        1.000000
X_72_9                        1.000000
X_73_33                       1.000000
X_74_13                       1.000000
X_75_32                       1.000000
X_76_10                       1.000000
X_77_10                       1.000000
X_78_39                       1.000000
X_79_13                       1.000000
X_80_6                        1.000000
X_81_18                       1.000000
X_82_24                       1.000000
X_83_9                        1.000000
X_84_7                        1.000000
X_85_30                       1.000000
X_86_4                        1.000000
X_87_24                       1.000000
X_88_5                        1.000000
X_89_2                        1.000000
X_90_8                        1.000000
X_91_22                       1.000000
X_92_1                        1.000000
X_93_20                       1.000000
X_94_12                       1.000000
X_95_7                        1.000000
X_96_25                       1.000000
X_97_40                       1.000000
X_98_35                       1.000000
X_99_3                        1.000000
X_100_40                      1.000000
X_101_11                      1.000000
X_102_14                      1.000000
X_103_21                      1.000000
X_104_36                      1.000000
X_105_16                      1.000000
X_106_21                      1.000000
X_107_20                      1.000000
X_108_9                       1.000000
X_109_12                      1.000000
X_110_19                      1.000000
X_111_22                      1.000000
X_112_7                       1.000000
X_113_37                      1.000000
X_114_16                      1.000000
X_115_19                      1.000000
X_116_24                      1.000000
X_117_21                      1.000000
X_118_20                      1.000000
X_119_19                      1.000000
X_120_30                      1.000000
X_121_15                      1.000000
X_122_37                      1.000000
X_123_40                      1.000000
X_124_35                      1.000000
X_125_8                       1.000000
X_126_12                      1.000000
X_127_8                       1.000000
X_128_22                      1.000000
X_129_33                      1.000000
X_130_12                      1.000000
X_131_39                      1.000000
X_132_2                       1.000000
X_133_27                      1.000000
X_134_8                       1.000000
X_135_32                      1.000000
X_136_6                       1.000000
X_137_26                      1.000000
X_138_37                      1.000000
X_139_31                      1.000000
X_140_30                      1.000000
X_141_2                       1.000000
X_142_28                      1.000000
X_143_33                      1.000000
X_144_4                       1.000000
X_145_34                      1.000000
X_146_5                       1.000000
X_147_17                      1.000000
X_148_17                      1.000000
X_149_10                      1.000000
X_150_15                      1.000000
X_151_39                      1.000000
X_152_11                      1.000000
X_153_3                       1.000000
X_154_26                      1.000000
X_155_33                      1.000000
X_156_3                       1.000000
X_157_25                      1.000000
X_158_22                      1.000000
X_159_1                       1.000000
X_160_28                      1.000000
X_161_31                      1.000000
X_162_17                      1.000000
X_163_30                      1.000000
X_164_13                      1.000000
X_165_36                      1.000000
X_166_29                      1.000000
X_167_16                      1.000000
X_168_17                      1.000000
X_169_3                       1.000000
X_170_13                      1.000000
X_171_4                       1.000000
X_172_2                       1.000000
X_173_14                      1.000000
X_174_23                      1.000000
X_175_11                      1.000000
X_176_38                      1.000000
X_177_35                      1.000000
X_178_36                      1.000000
X_179_29                      1.000000
X_180_2                       1.000000
X_181_31                      1.000000
X_182_17                      1.000000
X_183_1                       1.000000
X_184_11                      1.000000
X_185_18                      1.000000
X_186_31                      1.000000
X_187_39                      1.000000
X_188_34                      1.000000
X_189_18                      1.000000
X_190_5                       1.000000
X_191_4                       1.000000
X_192_15                      1.000000
X_193_14                      1.000000
X_194_37                      1.000000
X_195_20                      1.000000
X_196_6                       1.000000
X_197_7                       1.000000
X_198_3                       1.000000
X_199_18                      1.000000
X_200_13                      1.000000
All other variables in the range 1-8001 are 0.
